networks/zoo_34_55/zoo_34_55-lower.sol
<?xml version = "1.0" encoding="UTF-8" standalone="yes"?>
<CPLEXSolution version="1.2">
 <header
   problemName="networks/zoo_34_55/zoo_34_55-lower.lp"
   solutionName="incumbent"
   solutionIndex="-1"
   objectiveValue="9"
   solutionTypeValue="3"
   solutionTypeString="primal"
   solutionStatusValue="101"
   solutionStatusString="integer optimal solution"
   solutionMethodString="mip"
   primalFeasible="1"
   dualFeasible="1"
   MIPNodes="0"
   MIPIterations="0"
   writeLevel="3"/>
 <quality
   epInt="1.0000000000000001e-05"
   epRHS="9.9999999999999995e-07"
   maxIntInfeas="0"
   maxPrimalInfeas="0"
   maxX="1"
   maxSlack="1"/>
 <variables>
  <variable name="Y(1,11)" index="10" value="1"/>
  <variable name="Y(2,15)" index="40" value="1"/>
  <variable name="Y(3,17)" index="68" value="1"/>
  <variable name="Y(4,1)" index="78" value="1"/>
  <variable name="Y(5,4)" index="107" value="1"/>
  <variable name="Y(6,9)" index="138" value="1"/>
  <variable name="Y(7,10)" index="165" value="1"/>
  <variable name="Y(9,13)" index="220" value="1"/>
  <variable name="Y(29,2)" index="729" value="1"/>
  <variable name="X(1,2,2)" index="1431" value="1"/>
  <variable name="X(1,4,1)" index="1485" value="1"/>
  <variable name="X(1,18,4)" index="1543" value="1"/>
  <variable name="X(2,1,4)" index="1598" value="1"/>
  <variable name="X(2,15,2)" index="1651" value="1"/>
  <variable name="X(2,19,29)" index="1733" value="1"/>
  <variable name="X(3,4,13)" index="1772" value="1"/>
  <variable name="X(3,9,1)" index="1815" value="1"/>
  <variable name="X(3,14,33)" index="1902" value="1"/>
  <variable name="X(4,1,13)" index="1937" value="1"/>
  <variable name="X(4,3,1)" index="1980" value="1"/>
  <variable name="X(4,21,5)" index="2039" value="1"/>
  <variable name="X(5,12,15)" index="2104" value="1"/>
  <variable name="X(5,14,16)" index="2160" value="1"/>
  <variable name="X(6,7,16)" index="2215" value="1"/>
  <variable name="X(6,13,9)" index="2263" value="1"/>
  <variable name="X(7,6,9)" index="2318" value="1"/>
  <variable name="X(7,15,16)" index="2380" value="1"/>
  <variable name="X(8,11,1)" index="2420" value="1"/>
  <variable name="X(8,12,26)" index="2500" value="1"/>
  <variable name="X(9,3,28)" index="2557" value="1"/>
  <variable name="X(9,12,1)" index="2585" value="1"/>
  <variable name="X(9,26,6)" index="2645" value="1"/>
  <variable name="X(10,11,49)" index="2743" value="1"/>
  <variable name="X(10,27,7)" index="2756" value="1"/>
  <variable name="X(11,8,49)" index="2853" value="1"/>
  <variable name="X(11,10,7)" index="2866" value="1"/>
  <variable name="X(11,17,3)" index="2917" value="1"/>
  <variable name="X(11,28,1)" index="2970" value="1"/>
  <variable name="X(12,5,26)" index="3050" value="1"/>
  <variable name="X(12,8,1)" index="3080" value="1"/>
  <variable name="X(12,9,49)" index="3183" value="1"/>
  <variable name="X(13,6,16)" index="3205" value="1"/>
  <variable name="X(13,14,18)" index="3262" value="1"/>
  <variable name="X(13,30,9)" index="3308" value="1"/>
  <variable name="X(14,3,36)" index="3390" value="1"/>
  <variable name="X(14,5,18)" index="3427" value="1"/>
  <variable name="X(14,13,16)" index="3480" value="1"/>
  <variable name="X(15,2,21)" index="3540" value="1"/>
  <variable name="X(15,7,9)" index="3583" value="1"/>
  <variable name="X(15,32,2)" index="3631" value="1"/>
  <variable name="X(16,10,49)" index="3733" value="1"/>
  <variable name="X(16,17,55)" index="3794" value="1"/>
  <variable name="X(17,34,3)" index="3797" value="1"/>
 </variables>
</CPLEXSolution>
